Set parameter Username
Set parameter Threads to value 1
Academic license - for non-commercial use only - expires 2022-07-11
Set parameter TimeLimit to value 300
Gurobi Optimizer version 9.5.1 build v9.5.1rc2 (linux64)
Thread count: 2 physical cores, 4 logical processors, using up to 1 threads
Optimize a model with 1007 rows, 906 columns and 4302 nonzeros
Model fingerprint: 0x404e0db7
Variable types: 40 continuous, 866 integer (866 binary)
Coefficient statistics:
  Matrix range     [1e-01, 4e+02]
  Objective range  [1e-02, 5e-01]
  Bounds range     [1e+00, 1e+00]
  RHS range        [1e+00, 9e+02]
Found heuristic solution: objective 3.1590346
Presolve removed 257 rows and 83 columns
Presolve time: 0.04s
Presolved: 750 rows, 823 columns, 3669 nonzeros
Found heuristic solution: objective 3.1070496
Variable types: 39 continuous, 784 integer (784 binary)

Root relaxation: objective 1.943412e+00, 683 iterations, 0.01 seconds (0.01 work units)

    Nodes    |    Current Node    |     Objective Bounds      |     Work
 Expl Unexpl |  Obj  Depth IntInf | Incumbent    BestBd   Gap | It/Node Time

     0     0    1.94341    0   85    3.10705    1.94341  37.5%     -    0s
H    0     0                       2.7480820    1.94341  29.3%     -    0s
H    0     0                       2.7431793    1.94341  29.2%     -    0s
     0     0    2.05855    0   87    2.74318    2.05855  25.0%     -    0s
H    0     0                       2.7203104    2.05855  24.3%     -    0s
     0     0    2.06075    0   86    2.72031    2.06075  24.2%     -    0s
     0     0    2.12424    0   65    2.72031    2.12424  21.9%     -    0s
H    0     0                       2.6917291    2.12424  21.1%     -    0s
     0     0    2.12438    0   65    2.69173    2.12438  21.1%     -    0s
     0     0    2.17754    0   92    2.69173    2.17754  19.1%     -    0s
     0     0    2.21662    0   93    2.69173    2.21662  17.7%     -    0s
     0     0    2.22253    0  106    2.69173    2.22253  17.4%     -    0s
     0     0    2.22374    0  104    2.69173    2.22374  17.4%     -    0s
     0     0    2.22449    0  103    2.69173    2.22449  17.4%     -    0s
     0     0    2.22452    0  104    2.69173    2.22452  17.4%     -    0s
     0     0    2.25829    0   84    2.69173    2.25829  16.1%     -    0s
H    0     0                       2.6905987    2.25829  16.1%     -    0s
     0     0    2.27916    0  140    2.69060    2.27916  15.3%     -    0s
     0     0    2.28149    0  120    2.69060    2.28149  15.2%     -    0s
     0     0    2.28345    0  123    2.69060    2.28345  15.1%     -    0s
     0     0    2.28474    0  130    2.69060    2.28474  15.1%     -    0s
     0     0    2.28488    0  127    2.69060    2.28488  15.1%     -    0s
     0     0    2.29009    0   97    2.69060    2.29009  14.9%     -    0s
     0     0    2.29835    0   98    2.69060    2.29835  14.6%     -    0s
     0     0    2.29869    0  106    2.69060    2.29869  14.6%     -    0s
     0     0    2.29873    0  111    2.69060    2.29873  14.6%     -    0s
     0     0    2.30423    0  154    2.69060    2.30423  14.4%     -    0s
H    0     0                       2.6250177    2.30423  12.2%     -    0s
     0     0    2.30748    0  164    2.62502    2.30748  12.1%     -    0s
     0     0    2.30821    0  159    2.62502    2.30821  12.1%     -    0s
     0     0    2.30835    0  150    2.62502    2.30835  12.1%     -    0s
     0     0    2.31129    0  157    2.62502    2.31129  12.0%     -    0s
     0     0    2.31350    0  156    2.62502    2.31350  11.9%     -    0s
     0     0    2.31398    0  154    2.62502    2.31398  11.8%     -    0s
     0     0    2.31403    0  153    2.62502    2.31403  11.8%     -    0s
     0     0    2.31663    0  150    2.62502    2.31663  11.7%     -    0s
H    0     0                       2.5963047    2.31663  10.8%     -    0s
     0     0    2.31790    0  162    2.59630    2.31790  10.7%     -    0s
     0     0    2.31805    0  169    2.59630    2.31805  10.7%     -    0s
     0     0    2.31904    0  132    2.59630    2.31904  10.7%     -    0s
     0     0    2.31972    0  134    2.59630    2.31972  10.7%     -    0s
     0     0    2.31987    0  131    2.59630    2.31987  10.6%     -    0s
     0     0    2.32169    0  116    2.59630    2.32169  10.6%     -    0s
H    0     0                       2.5713828    2.32169  9.71%     -    0s
     0     0    2.32335    0  162    2.57138    2.32335  9.65%     -    0s
     0     0    2.32378    0  159    2.57138    2.32378  9.63%     -    0s
     0     0    2.32414    0  158    2.57138    2.32414  9.62%     -    0s
     0     0    2.32421    0  157    2.57138    2.32421  9.61%     -    0s
     0     0    2.32531    0  126    2.57138    2.32531  9.57%     -    0s
H    0     0                       2.5258923    2.32531  7.94%     -    0s
     0     0    2.32561    0  153    2.52589    2.32561  7.93%     -    0s
     0     0    2.32562    0  171    2.52589    2.32562  7.93%     -    0s
     0     0    2.32605    0  181    2.52589    2.32605  7.91%     -    0s
     0     0    2.32605    0  178    2.52589    2.32605  7.91%     -    0s
H    0     0                       2.5206994    2.32605  7.72%     -    1s
     0     2    2.32617    0  176    2.52070    2.32617  7.72%     -    1s
H   52    52                       2.5128921    2.33470  7.09%  94.0    1s
H  342   187                       2.5126990    2.35240  6.38%  73.9    2s
   552   311    2.47679   30  152    2.51270    2.35739  6.18%  70.2    5s
H 1155   328                       2.5054052    2.39841  4.27%  82.4    9s
H 1181   300                       2.5012185    2.39847  4.11%  81.4    9s
  1339   301     cutoff   31         2.50122    2.40323  3.92%  80.6   10s
* 2052   412              34       2.4906468    2.43428  2.26%  74.7   12s
  2715   226     cutoff   39         2.49065    2.46866  0.88%  68.7   15s

Cutting planes:
  Gomory: 5
  Cover: 20
  Implied bound: 8
  Clique: 3
  MIR: 99
  StrongCG: 4
  Flow cover: 138
  Inf proof: 3
  RLT: 7
  Relax-and-lift: 142

Explored 3087 nodes (202489 simplex iterations) in 15.65 seconds (11.47 work units)
Thread count was 1 (of 4 available processors)

Solution count 10: 2.49065 2.50122 2.50541 ... 2.6906

Optimal solution found (tolerance 1.00e-04)
Best objective 2.490646791374e+00, best bound 2.490519571828e+00, gap 0.0051%
